Route 1: 0 25 28 13 10 73 46 0
Route 2: 0 29 94 19 91 32 95 44 38 0
Route 3: 0 23 15 65 85 99 98 6 76 66 52 8 0
Route 4: 0 14 61 79 89 55 26 42 97 16 0
Route 5: 0 75 12 56 43 74 33 37 40 82 62 30 0
Route 6: 0 31 11 9 60 48 64 68 53 54 0
Route 7: 0 7 69 67 34 71 2 87 0
Route 8: 0 50 70 86 49 45 5 88 27 84 80 17 0
Route 9: 0 24 47 78 83 1 63 4 92 41 0
Route 10: 0 100 96 35 58 57 3 36 93 39 0
Route 11: 0 77 51 20 72 22 81 90 59 21 18 0
